NAME : morphed23-5-8
COMMENT : Generated using the function morphInstances from the R-package netgen (Bossek,2015) - Number of clusters: 5 Alpha: 0.5
TYPE : TSP
DIMENSION : 23
EDGE_WEIGHT_TYPE : EUC_2D
NODE_COORD_SECTION
1 47.7248078487 12.8970205525
2 17.1632780274 69.3186036968
3 84.4062314499 88.9100390097
4 69.6846434563 16.7708224956
5 41.5751689882 54.8152500308
6 74.3914764866 44.8925414837
7 44.113487026 66.9346781793
8 86.8681685611 24.2255254458
9 82.9259533497 55.5709403574
10 73.0043652298 80.4455967679
11 44.7216297937 16.1523580506
12 13.3762811493 29.3045594255
13 59.3429198242 34.6364598257
14 67.6036183997 76.7769879508
15 9.20156928 89.2116332921
16 85.8547829833 36.9359511521
17 2.4751060774 78.1464376939
18 44.3997895698 70.0445498749
19 29.0583139571 23.5769514379
20 63.0411043875 43.6132297159
21 20.4113541742 88.6600941563
22 42.8888333211 37.2565755218
23 64.1952152849 27.3041467186
EOF
